************************************************************************
file with basedata            : md375_.bas
initial value random generator: 11922
************************************************************************
projects                      :  1
jobs (incl. supersource/sink ):  22
horizon                       :  159
RESOURCES
  - renewable                 :  2   R
  - nonrenewable              :  2   N
  - doubly constrained        :  0   D
************************************************************************
PROJECT INFORMATION:
pronr.  #jobs rel.date duedate tardcost  MPM-Time
    1     20      0       24        6       24
************************************************************************
PRECEDENCE RELATIONS:
jobnr.    #modes  #successors   successors
   1        1          3           2   3   4
   2        3          3           7  10  20
   3        3          3           5   6  10
   4        3          3           6  11  19
   5        3          3           9  11  14
   6        3          2          16  17
   7        3          3           8   9  14
   8        3          2          12  16
   9        3          2          12  21
  10        3          1          18
  11        3          1          13
  12        3          2          15  18
  13        3          2          17  21
  14        3          3          15  16  18
  15        3          1          19
  16        3          1          21
  17        3          1          20
  18        3          1          19
  19        3          1          22
  20        3          1          22
  21        3          1          22
  22        1          0        
************************************************************************
REQUESTS/DURATIONS:
jobnr. mode duration  R 1  R 2  N 1  N 2
------------------------------------------------------------------------
  1      1     0       0    0    0    0
  2      1     5       4    8   10    9
         2     5       6    9    9    9
         3     6       1    8    9    8
  3      1     2       7    7    4    8
         2     5       5    5    3    7
         3     8       4    3    3    5
  4      1     1      10    7    6    6
         2     5      10    6    4    3
         3     8      10    3    2    2
  5      1     3       9    4    4    9
         2     8       8    3    3    7
         3     9       8    2    2    6
  6      1     1       2    7    4    4
         2     1       2    6    5    4
         3     7       2    2    1    4
  7      1     1       9    7    9    6
         2     6       3    5    7    3
         3     6       5    7    4    4
  8      1     9       7    2   10    7
         2    10       7    1    9    6
         3    10       6    1   10    7
  9      1     3       9    6    8    6
         2     4       7    6    7    6
         3    10       6    4    7    6
 10      1     2       5    8    6    9
         2     6       4    5    5    9
         3    10       2    3    3    8
 11      1     5       4    9    6    8
         2     6       4    7    4    7
         3     6       4    8    3    7
 12      1     3       4    8    7    5
         2     5       4    8    5    4
         3     9       4    7    3    4
 13      1     5       8    3    7    4
         2     6       7    3    6    3
         3     8       7    2    5    2
 14      1     1       8    3    9    2
         2     3       8    2    8    1
         3     9       8    1    8    1
 15      1     1      10    9    7    6
         2     3       8    8    7    5
         3    10       7    8    6    3
 16      1     2       1    6    8   10
         2     6       1    4    8    5
         3     8       1    1    5    5
 17      1     3       6    8    4    6
         2     3       5   10    4    6
         3     8       2    6    2    6
 18      1     4       7    5    9    8
         2     6       6    5    6    7
         3     8       6    4    6    6
 19      1     2       4    7    5    9
         2     2       4    6    6   10
         3     4       4    5    2    8
 20      1     3      10    9    9    7
         2     4       5    9    4    7
         3     7       5    9    2    7
 21      1     3       1    7    7    7
         2     5       1    6    7    6
         3     8       1    5    6    1
 22      1     0       0    0    0    0
************************************************************************
RESOURCEAVAILABILITIES:
  R 1  R 2  N 1  N 2
   27   25  128  127
************************************************************************
MAXIMAL LAGS:
from  to  type  delay
    1   22   ES      0
    1    2   ES      0
    2   22   ES      0
    1    3   ES      0
    3   22   ES      0
    1    4   ES      0
    4   22   ES      0
    1    5   ES      0
    5   22   ES      0
    1    6   ES      0
    6   22   ES      0
    1    7   ES      0
    7   22   ES      0
    1    8   ES      0
    8   22   ES      0
    1    9   ES      0
    9   22   ES      0
    1   10   ES      0
   10   22   ES      0
    1   11   ES      0
   11   22   ES      0
    1   12   ES      0
   12   22   ES      0
    1   13   ES      0
   13   22   ES      0
    1   14   ES      0
   14   22   ES      0
    1   15   ES      0
   15   22   ES      0
    1   16   ES      0
   16   22   ES      0
    1   17   ES      0
   17   22   ES      0
    1   18   ES      0
   18   22   ES      0
    1   19   ES      0
   19   22   ES      0
    1   20   ES      0
   20   22   ES      0
    1   21   ES      0
   21   22   ES      0
    1   22   ES      0
    2    7   SS    -10
    2    7   SE     10
    2    7   ES     -4
    2    7   EE     -3
    2   10   SS      4
    2   10   SE      6
    2   10   ES     -3
    2   10   EE    -12
    2   20   SS    -12
    2   20   SE      6
    2   20   ES      9
    2   20   EE     -3
    3    5   SS      0
    3    5   SE     -2
    3    5   ES     12
    3    5   EE      5
    3    6   SS     -4
    3    6   SE      0
    3    6   ES     -5
    3    6   EE      6
    3   10   SS     -8
    3   10   SE      8
    3   10   ES     11
    3   10   EE     -3
    4    6   SS      5
    4    6   SE     11
    4    6   ES      4
    4    6   EE      3
    4   11   SS      5
    4   11   SE    -12
    4   11   ES      8
    4   11   EE      3
    4   19   SS     12
    4   19   SE     -5
    4   19   ES      3
    4   19   EE      0
    5    9   SS      9
    5    9   SE      8
    5    9   ES      9
    5    9   EE      3
    5   11   SS      1
    5   11   SE     -4
    5   11   ES      6
    5   11   EE      3
    5   14   SS     -6
    5   14   SE      2
    5   14   ES      4
    5   14   EE    -11
    6   16   SS     -2
    6   16   SE     -5
    6   16   ES     -4
    6   16   EE     -8
    6   17   SS     -1
    6   17   SE     -9
    6   17   ES      6
    6   17   EE     -9
    7    8   SS      5
    7    8   SE      2
    7    8   ES     -9
    7    8   EE      1
    7    9   SS     -8
    7    9   SE      5
    7    9   ES      6
    7    9   EE      2
    7   14   SS     -3
    7   14   SE      2
    7   14   ES      1
    7   14   EE      2
    8   12   SS      1
    8   12   SE      1
    8   12   ES     10
    8   12   EE      0
    8   16   SS     12
    8   16   SE    -11
    8   16   ES     10
    8   16   EE      7
    9   12   SS    -10
    9   12   SE      6
    9   12   ES     -9
    9   12   EE      7
    9   21   SS     -6
    9   21   SE     -1
    9   21   ES     -7
    9   21   EE      0
   10   18   SS     -4
   10   18   SE     -8
   10   18   ES     -2
   10   18   EE      6
   11   13   SS      9
   11   13   SE      8
   11   13   ES      7
   11   13   EE     -6
   12   15   SS     -9
   12   15   SE      2
   12   15   ES      1
   12   15   EE      6
   12   18   SS      3
   12   18   SE    -12
   12   18   ES      4
   12   18   EE     -1
   13   17   SS      1
   13   17   SE     12
   13   17   ES      2
   13   17   EE     -2
   13   21   SS      6
   13   21   SE     -9
   13   21   ES    -12
   13   21   EE      8
   14   15   SS     -1
   14   15   SE      8
   14   15   ES      1
   14   15   EE     11
   14   16   SS     -6
   14   16   SE     11
   14   16   ES      6
   14   16   EE      8
   14   18   SS      9
   14   18   SE      1
   14   18   ES      3
   14   18   EE    -11
   15   19   SS      9
   15   19   SE     -3
   15   19   ES     -4
   15   19   EE      2
   16   21   SS      3
   16   21   SE      3
   16   21   ES     -9
   16   21   EE     -4
   17   20   SS    -11
   17   20   SE     -1
   17   20   ES      2
   17   20   EE      2
   18   19   SS    -11
   18   19   SE     -8
   18   19   ES     -1
   18   19   EE     11
************************************************************************
